(set-info :source |printed by MathSAT|)
(declare-fun hhv_ULTIMATE.start_ULTIMATE.startFINAL_0_Int () Int)
(declare-fun .x.592 () Int)
(declare-fun hhv_ULTIMATE.start_ULTIMATE.startFINAL_1_Array_Int_Int () (Array Int Int))
(declare-fun .x.593 () (Array Int Int))
(declare-fun hhv_ULTIMATE.start_ULTIMATE.startFINAL_2_Array_Int_Int () (Array Int Int))
(declare-fun .x.594 () (Array Int Int))
(declare-fun hhv_ULTIMATE.start_ULTIMATE.startFINAL_3_Array_Int_Array_Int_Int () (Array Int (Array Int Int)))
(declare-fun .x.595 () (Array Int (Array Int Int)))
(declare-fun hhv_ULTIMATE.start_ULTIMATE.startFINAL_4_Array_Int_Array_Int_Int () (Array Int (Array Int Int)))
(declare-fun .x.596 () (Array Int (Array Int Int)))
(declare-fun hhv_ULTIMATE.start_ULTIMATE.startFINAL_5_Int () Int)
(declare-fun .x.597 () Int)
(declare-fun hhv_ULTIMATE.start_ULTIMATE.startFINAL_6_Int () Int)
(declare-fun .x.598 () Int)
(declare-fun hhv_ULTIMATE.start_ULTIMATE.startFINAL_7_Array_Int_Int () (Array Int Int))
(declare-fun .x.599 () (Array Int Int))
(declare-fun hhv_ULTIMATE.start_ULTIMATE.startFINAL_8_Array_Int_Int () (Array Int Int))
(declare-fun .x.600 () (Array Int Int))
(declare-fun hhv_ULTIMATE.start_ULTIMATE.startFINAL_9_Int () Int)
(declare-fun .x.601 () Int)
(declare-fun hhv_ULTIMATE.start_ULTIMATE.startFINAL_10_Int () Int)
(declare-fun .x.602 () Int)
(declare-fun hhv_ULTIMATE.start_ULTIMATE.startFINAL_11_Int () Int)
(declare-fun .x.603 () Int)
(declare-fun hhv_ULTIMATE.start_ULTIMATE.startFINAL_12_Int () Int)
(declare-fun .x.604 () Int)
(declare-fun hhv_ULTIMATE.start_ULTIMATE.startFINAL_13_Int () Int)
(declare-fun .x.605 () Int)
(declare-fun hhv_ULTIMATE.start_ULTIMATE.startFINAL_14_Int () Int)
(declare-fun .x.606 () Int)
(declare-fun hhv_ULTIMATE.start_ULTIMATE.startFINAL_15_Int () Int)
(declare-fun .x.607 () Int)
(declare-fun hhv_ULTIMATE.start_ULTIMATE.startFINAL_16_Int () Int)
(declare-fun .x.608 () Int)
(declare-fun hhv_ULTIMATE.start_ULTIMATE.startFINAL_17_Int () Int)
(declare-fun .x.609 () Int)
(declare-fun hhv_ULTIMATE.start_ULTIMATE.startFINAL_18_Int () Int)
(declare-fun .x.610 () Int)
(declare-fun hhv_ULTIMATE.start_ULTIMATE.startFINAL_19_Int () Int)
(declare-fun .x.611 () Int)
(declare-fun hhv_ULTIMATE.start_ULTIMATE.startFINAL_20_Int () Int)
(declare-fun .x.612 () Int)
(declare-fun hhv_ULTIMATE.start_ULTIMATE.startFINAL_21_Int () Int)
(declare-fun .x.613 () Int)
(declare-fun hhv_ULTIMATE.start_ULTIMATE.startFINAL_22_Int () Int)
(declare-fun .x.614 () Int)
(declare-fun hhv_ULTIMATE.start_ULTIMATE.startFINAL_23_Int () Int)
(declare-fun .x.615 () Int)
(declare-fun hhv_ULTIMATE.start_ULTIMATE.startFINAL_24_Int () Int)
(declare-fun .x.616 () Int)
(declare-fun hhv_ULTIMATE.start_ULTIMATE.startFINAL_25_Int () Int)
(declare-fun .x.617 () Int)
(declare-fun hhv_ULTIMATE.start_ULTIMATE.startFINAL_26_Int () Int)
(declare-fun .x.618 () Int)
(declare-fun hbv_ULTIMATE.start_L38_27_Int () Int)
(declare-fun .x.619 () Int)
(declare-fun hhv_ULTIMATE.start_ULTIMATE.startFINAL_28_Int () Int)
(declare-fun .x.620 () Int)
(declare-fun hhv_ULTIMATE.start_ULTIMATE.startFINAL_29_Int () Int)
(declare-fun .x.621 () Int)
(declare-fun hhv_ULTIMATE.start_ULTIMATE.startFINAL_30_Int () Int)
(declare-fun .x.622 () Int)
(declare-fun hhv_ULTIMATE.start_ULTIMATE.startFINAL_31_Int () Int)
(declare-fun .x.623 () Int)
(declare-fun hhv_ULTIMATE.start_ULTIMATE.startFINAL_32_Int () Int)
(declare-fun .x.624 () Int)
(declare-fun hhv_ULTIMATE.start_ULTIMATE.startFINAL_33_Int () Int)
(declare-fun .x.625 () Int)
(declare-fun hhv_ULTIMATE.start_ULTIMATE.startFINAL_34_Int () Int)
(declare-fun .x.626 () Int)
(declare-fun hhv_ULTIMATE.start_ULTIMATE.startFINAL_35_Int () Int)
(declare-fun .x.627 () Int)
(declare-fun hhv_ULTIMATE.start_ULTIMATE.startFINAL_36_Int () Int)
(declare-fun .x.628 () Int)
(declare-fun hhv_ULTIMATE.start_ULTIMATE.startFINAL_37_Bool () Bool)
(declare-fun .x.629 () Bool)
(declare-fun .loc.5 () Bool)
(declare-fun .loc.9 () Bool)
(declare-fun .loc.6 () Bool)
(declare-fun .loc.10 () Bool)
(declare-fun .loc.7 () Bool)
(declare-fun .loc.11 () Bool)
(declare-fun .loc.8 () Bool)
(declare-fun .loc.12 () Bool)
(declare-fun hbv_ULTIMATE.start_L-1_1_Array_Int_Int () (Array Int Int))
(declare-fun hbv_ULTIMATE.start_L30_33_Int () Int)
(define-fun .def_8 () Int (! hhv_ULTIMATE.start_ULTIMATE.startFINAL_0_Int :next |.x.592|))
(define-fun .def_10 () (Array Int Int) (! hhv_ULTIMATE.start_ULTIMATE.startFINAL_1_Array_Int_Int :next |.x.593|))
(define-fun .def_12 () (Array Int Int) (! hhv_ULTIMATE.start_ULTIMATE.startFINAL_2_Array_Int_Int :next |.x.594|))
(define-fun .def_14 () (Array Int (Array Int Int)) (! hhv_ULTIMATE.start_ULTIMATE.startFINAL_3_Array_Int_Array_Int_Int :next |.x.595|))
(define-fun .def_16 () (Array Int (Array Int Int)) (! hhv_ULTIMATE.start_ULTIMATE.startFINAL_4_Array_Int_Array_Int_Int :next |.x.596|))
(define-fun .def_18 () Int (! hhv_ULTIMATE.start_ULTIMATE.startFINAL_5_Int :next |.x.597|))
(define-fun .def_20 () Int (! hhv_ULTIMATE.start_ULTIMATE.startFINAL_6_Int :next |.x.598|))
(define-fun .def_22 () (Array Int Int) (! hhv_ULTIMATE.start_ULTIMATE.startFINAL_7_Array_Int_Int :next |.x.599|))
(define-fun .def_24 () (Array Int Int) (! hhv_ULTIMATE.start_ULTIMATE.startFINAL_8_Array_Int_Int :next |.x.600|))
(define-fun .def_26 () Int (! hhv_ULTIMATE.start_ULTIMATE.startFINAL_9_Int :next |.x.601|))
(define-fun .def_28 () Int (! hhv_ULTIMATE.start_ULTIMATE.startFINAL_10_Int :next |.x.602|))
(define-fun .def_30 () Int (! hhv_ULTIMATE.start_ULTIMATE.startFINAL_11_Int :next |.x.603|))
(define-fun .def_32 () Int (! hhv_ULTIMATE.start_ULTIMATE.startFINAL_12_Int :next |.x.604|))
(define-fun .def_34 () Int (! hhv_ULTIMATE.start_ULTIMATE.startFINAL_13_Int :next |.x.605|))
(define-fun .def_36 () Int (! hhv_ULTIMATE.start_ULTIMATE.startFINAL_14_Int :next |.x.606|))
(define-fun .def_38 () Int (! hhv_ULTIMATE.start_ULTIMATE.startFINAL_15_Int :next |.x.607|))
(define-fun .def_40 () Int (! hhv_ULTIMATE.start_ULTIMATE.startFINAL_16_Int :next |.x.608|))
(define-fun .def_42 () Int (! hhv_ULTIMATE.start_ULTIMATE.startFINAL_17_Int :next |.x.609|))
(define-fun .def_44 () Int (! hhv_ULTIMATE.start_ULTIMATE.startFINAL_18_Int :next |.x.610|))
(define-fun .def_46 () Int (! hhv_ULTIMATE.start_ULTIMATE.startFINAL_19_Int :next |.x.611|))
(define-fun .def_48 () Int (! hhv_ULTIMATE.start_ULTIMATE.startFINAL_20_Int :next |.x.612|))
(define-fun .def_50 () Int (! hhv_ULTIMATE.start_ULTIMATE.startFINAL_21_Int :next |.x.613|))
(define-fun .def_52 () Int (! hhv_ULTIMATE.start_ULTIMATE.startFINAL_22_Int :next |.x.614|))
(define-fun .def_54 () Int (! hhv_ULTIMATE.start_ULTIMATE.startFINAL_23_Int :next |.x.615|))
(define-fun .def_56 () Int (! hhv_ULTIMATE.start_ULTIMATE.startFINAL_24_Int :next |.x.616|))
(define-fun .def_58 () Int (! hhv_ULTIMATE.start_ULTIMATE.startFINAL_25_Int :next |.x.617|))
(define-fun .def_60 () Int (! hhv_ULTIMATE.start_ULTIMATE.startFINAL_26_Int :next |.x.618|))
(define-fun .def_62 () Int (! hbv_ULTIMATE.start_L38_27_Int :next |.x.619|))
(define-fun .def_64 () Int (! hhv_ULTIMATE.start_ULTIMATE.startFINAL_28_Int :next |.x.620|))
(define-fun .def_66 () Int (! hhv_ULTIMATE.start_ULTIMATE.startFINAL_29_Int :next |.x.621|))
(define-fun .def_68 () Int (! hhv_ULTIMATE.start_ULTIMATE.startFINAL_30_Int :next |.x.622|))
(define-fun .def_70 () Int (! hhv_ULTIMATE.start_ULTIMATE.startFINAL_31_Int :next |.x.623|))
(define-fun .def_72 () Int (! hhv_ULTIMATE.start_ULTIMATE.startFINAL_32_Int :next |.x.624|))
(define-fun .def_74 () Int (! hhv_ULTIMATE.start_ULTIMATE.startFINAL_33_Int :next |.x.625|))
(define-fun .def_76 () Int (! hhv_ULTIMATE.start_ULTIMATE.startFINAL_34_Int :next |.x.626|))
(define-fun .def_78 () Int (! hhv_ULTIMATE.start_ULTIMATE.startFINAL_35_Int :next |.x.627|))
(define-fun .def_80 () Int (! hhv_ULTIMATE.start_ULTIMATE.startFINAL_36_Int :next |.x.628|))
(define-fun .def_82 () Bool (! hhv_ULTIMATE.start_ULTIMATE.startFINAL_37_Bool :next |.x.629|))
(define-fun .def_84 () Bool (! .loc.5 :next |.loc.9|))
(define-fun .def_86 () Bool (! .loc.6 :next |.loc.10|))
(define-fun .def_88 () Bool (! .loc.7 :next |.loc.11|))
(define-fun .def_90 () Bool (! .loc.8 :next |.loc.12|))
(define-fun .def_127 () (Array Int Int) (! hbv_ULTIMATE.start_L-1_1_Array_Int_Int :next |.xtv.1|))
(define-fun .def_201 () Int (! hbv_ULTIMATE.start_L30_33_Int :next |.xtv.2|))
(define-fun .def_122 () Bool (not .def_84))
(define-fun .def_116 () Bool (not .def_86))
(define-fun .def_595 () Bool (and .def_116 .def_122))
(define-fun .def_124 () Bool (not .def_88))
(define-fun .def_596 () Bool (and .def_124 .def_595))
(define-fun .def_581 () Bool (not .def_90))
(define-fun .def_597 () Bool (and .def_581 .def_596))
(define-fun .def_589 () Bool (not .def_82))
(define-fun .def_588 () Bool (= .def_10 .def_12))
(define-fun .def_590 () Bool (and .def_588 .def_589))
(define-fun .def_587 () Bool (= .def_22 .def_24))
(define-fun .def_591 () Bool (and .def_587 .def_590))
(define-fun .def_586 () Bool (= .def_18 .def_20))
(define-fun .def_592 () Bool (and .def_586 .def_591))
(define-fun .def_585 () Bool (= .def_14 .def_16))
(define-fun .def_593 () Bool (and .def_585 .def_592))
(define-fun .def_584 () Bool (= .def_26 .def_28))
(define-fun .def_594 () Bool (and .def_584 .def_593))
(define-fun .def_598 () Bool (! (and .def_594 .def_597) :init true))
(define-fun .def_579 () Bool (= .def_28 .x.602))
(define-fun .def_577 () Bool (= .def_24 .x.600))
(define-fun .def_575 () Bool (= .def_20 .x.598))
(define-fun .def_573 () Bool (= .def_16 .x.596))
(define-fun .def_571 () Bool (= .def_8 .x.592))
(define-fun .def_570 () Bool (= .def_12 .x.594))
(define-fun .def_572 () Bool (and .def_570 .def_571))
(define-fun .def_574 () Bool (and .def_572 .def_573))
(define-fun .def_576 () Bool (and .def_574 .def_575))
(define-fun .def_578 () Bool (and .def_576 .def_577))
(define-fun .def_580 () Bool (and .def_578 .def_579))
(define-fun .def_582 () Bool (and .def_580 .def_581))
(define-fun .def_535 () Bool (= .x.619 .def_68))
(define-fun .def_536 () Bool (or .def_82 .def_535))
(define-fun .def_92 () Bool (= .def_34 .x.605))
(define-fun .def_537 () Bool (and .def_92 .def_536))
(define-fun .def_95 () Bool (= .def_44 .x.610))
(define-fun .def_538 () Bool (and .def_95 .def_537))
(define-fun .def_97 () Bool (= .def_48 .x.612))
(define-fun .def_539 () Bool (and .def_97 .def_538))
(define-fun .def_99 () Bool (= .def_50 .x.613))
(define-fun .def_540 () Bool (and .def_99 .def_539))
(define-fun .def_101 () Bool (= .def_58 .x.617))
(define-fun .def_541 () Bool (and .def_101 .def_540))
(define-fun .def_103 () Bool (= .def_64 .x.620))
(define-fun .def_542 () Bool (and .def_103 .def_541))
(define-fun .def_105 () Bool (= .def_72 .x.624))
(define-fun .def_543 () Bool (and .def_105 .def_542))
(define-fun .def_187 () Bool (= .def_74 .x.625))
(define-fun .def_544 () Bool (and .def_187 .def_543))
(define-fun .def_107 () Bool (= .def_80 .x.628))
(define-fun .def_545 () Bool (and .def_107 .def_544))
(define-fun .def_109 () Bool (= .def_82 .x.629))
(define-fun .def_546 () Bool (and .def_109 .def_545))
(define-fun .def_547 () Bool (and .def_86 .def_546))
(define-fun .def_489 () Bool (<= (- 2147483648) .def_201))
(define-fun .def_488 () Bool (<= .def_201 2147483647))
(define-fun .def_490 () Bool (and .def_488 .def_489))
(define-fun .def_487 () Bool (= .x.617 .def_201))
(define-fun .def_491 () Bool (and .def_487 .def_490))
(define-fun .def_531 () Bool (or .def_82 .def_491))
(define-fun .def_483 () Bool (= .def_201 0))
(define-fun .def_529 () Bool (or .def_82 .def_483))
(define-fun .def_528 () Bool (and .x.629 .def_116))
(define-fun .def_530 () Bool (and .def_528 .def_529))
(define-fun .def_532 () Bool (and .def_530 .def_531))
(define-fun .def_118 () Bool (= .def_62 .x.619))
(define-fun .def_533 () Bool (and .def_118 .def_532))
(define-fun .def_478 () Bool (= .x.620 .x.624))
(define-fun .def_476 () Bool (= .def_52 .x.628))
(define-fun .def_474 () Bool (= .x.610 .x.612))
(define-fun .def_472 () Bool (= .x.613 .x.628))
(define-fun .def_464 () Int (* 8 .x.624))
(define-fun .def_465 () Int (+ .x.610 .def_464))
(define-fun .def_466 () (Array Int Int) (select .def_14 .x.613))
(define-fun .def_467 () Int (select .def_466 .def_465))
(define-fun .def_468 () Bool (= .x.624 .def_467))
(define-fun .def_469 () Int (ite .def_468 1 0))
(define-fun .def_470 () Bool (= .x.617 .def_469))
(define-fun .def_462 () Bool (= .def_60 .x.620))
(define-fun .def_461 () Bool (= .x.612 .def_56))
(define-fun .def_463 () Bool (and .def_461 .def_462))
(define-fun .def_471 () Bool (and .def_463 .def_470))
(define-fun .def_473 () Bool (and .def_471 .def_472))
(define-fun .def_475 () Bool (and .def_473 .def_474))
(define-fun .def_477 () Bool (and .def_475 .def_476))
(define-fun .def_479 () Bool (and .def_477 .def_478))
(define-fun .def_480 () Bool (or .def_82 .def_479))
(define-fun .def_534 () Bool (and .def_480 .def_533))
(define-fun .def_548 () Bool (or .def_534 .def_547))
(define-fun .def_174 () Bool (= .def_52 .x.614))
(define-fun .def_163 () Bool (= .def_10 .x.593))
(define-fun .def_451 () Bool (and .def_163 .def_174))
(define-fun .def_178 () Bool (= .def_56 .x.616))
(define-fun .def_452 () Bool (and .def_178 .def_451))
(define-fun .def_182 () Bool (= .def_68 .x.622))
(define-fun .def_453 () Bool (and .def_182 .def_452))
(define-fun .def_524 () Bool (and .loc.12 .def_453))
(define-fun .def_321 () Bool (not .loc.9))
(define-fun .def_525 () Bool (and .def_321 .def_524))
(define-fun .def_112 () Bool (not .loc.10))
(define-fun .def_526 () Bool (and .def_112 .def_525))
(define-fun .def_114 () Bool (not .loc.11))
(define-fun .def_527 () Bool (and .def_114 .def_526))
(define-fun .def_549 () Bool (and .def_527 .def_548))
(define-fun .def_516 () Bool (and .def_82 .x.629))
(define-fun .def_517 () Bool (and .loc.9 .def_516))
(define-fun .def_518 () Bool (and .loc.10 .def_517))
(define-fun .def_519 () Bool (and .loc.11 .def_518))
(define-fun .def_520 () Bool (and .def_116 .def_519))
(define-fun .def_521 () Bool (and .def_118 .def_520))
(define-fun .def_522 () Bool (and .def_480 .def_521))
(define-fun .def_120 () Bool (not .loc.12))
(define-fun .def_523 () Bool (and .def_120 .def_522))
(define-fun .def_550 () Bool (or .def_523 .def_549))
(define-fun .def_551 () Bool (and .def_84 .def_550))
(define-fun .def_511 () (Array Int Int) (store .def_10 .def_52 0))
(define-fun .def_512 () Bool (= .x.593 .def_511))
(define-fun .def_510 () Bool (= .x.622 0))
(define-fun .def_513 () Bool (and .def_510 .def_512))
(define-fun .def_514 () Bool (or .def_82 .def_513))
(define-fun .def_494 () Bool (and .def_92 .def_95))
(define-fun .def_495 () Bool (and .def_97 .def_494))
(define-fun .def_496 () Bool (and .def_99 .def_495))
(define-fun .def_497 () Bool (and .def_101 .def_496))
(define-fun .def_498 () Bool (and .def_103 .def_497))
(define-fun .def_499 () Bool (and .def_105 .def_498))
(define-fun .def_500 () Bool (and .def_187 .def_499))
(define-fun .def_501 () Bool (and .def_107 .def_500))
(define-fun .def_502 () Bool (and .def_109 .def_501))
(define-fun .def_503 () Bool (and .def_86 .def_502))
(define-fun .def_504 () Bool (and .loc.9 .def_503))
(define-fun .def_505 () Bool (and .loc.10 .def_504))
(define-fun .def_506 () Bool (and .loc.11 .def_505))
(define-fun .def_507 () Bool (and .def_118 .def_506))
(define-fun .def_508 () Bool (and .def_120 .def_507))
(define-fun .def_509 () Bool (and .def_122 .def_508))
(define-fun .def_515 () Bool (and .def_509 .def_514))
(define-fun .def_552 () Bool (or .def_515 .def_551))
(define-fun .def_492 () Bool (or .x.629 .def_491))
(define-fun .def_484 () Bool (not .def_483))
(define-fun .def_485 () Bool (or .x.629 .def_484))
(define-fun .def_454 () Bool (and .def_109 .def_453))
(define-fun .def_455 () Bool (and .def_84 .def_454))
(define-fun .def_456 () Bool (and .loc.10 .def_455))
(define-fun .def_457 () Bool (and .loc.11 .def_456))
(define-fun .def_458 () Bool (and .def_321 .def_457))
(define-fun .def_459 () Bool (and .def_116 .def_458))
(define-fun .def_460 () Bool (and .def_118 .def_459))
(define-fun .def_481 () Bool (and .def_460 .def_480))
(define-fun .def_482 () Bool (and .def_120 .def_481))
(define-fun .def_486 () Bool (and .def_482 .def_485))
(define-fun .def_493 () Bool (and .def_486 .def_492))
(define-fun .def_553 () Bool (or .def_493 .def_552))
(define-fun .def_268 () Bool (= .def_60 .x.618))
(define-fun .def_259 () Bool (= .def_30 .x.603))
(define-fun .def_449 () Bool (and .def_259 .def_268))
(define-fun .def_450 () Bool (and .def_88 .def_449))
(define-fun .def_554 () Bool (and .def_450 .def_553))
(define-fun .def_444 () Bool (= .def_30 .x.618))
(define-fun .def_243 () Bool (<= .def_30 2147483647))
(define-fun .def_445 () Bool (and .def_243 .def_444))
(define-fun .def_246 () Bool (<= (- 2147483648) .def_30))
(define-fun .def_446 () Bool (and .def_246 .def_445))
(define-fun .def_447 () Bool (or .def_82 .def_446))
(define-fun .def_440 () Bool (<= 10 .x.618))
(define-fun .def_441 () Bool (or .x.629 .def_440))
(define-fun .def_438 () Bool (<= 0 .x.618))
(define-fun .def_439 () Bool (not .def_438))
(define-fun .def_442 () Bool (or .def_439 .def_441))
(define-fun .def_164 () Bool (and .def_92 .def_163))
(define-fun .def_418 () Bool (and .def_95 .def_164))
(define-fun .def_419 () Bool (and .def_97 .def_418))
(define-fun .def_420 () Bool (and .def_99 .def_419))
(define-fun .def_421 () Bool (and .def_174 .def_420))
(define-fun .def_422 () Bool (and .def_178 .def_421))
(define-fun .def_423 () Bool (and .def_101 .def_422))
(define-fun .def_424 () Bool (and .def_103 .def_423))
(define-fun .def_425 () Bool (and .def_182 .def_424))
(define-fun .def_426 () Bool (and .def_105 .def_425))
(define-fun .def_427 () Bool (and .def_187 .def_426))
(define-fun .def_428 () Bool (and .def_107 .def_427))
(define-fun .def_429 () Bool (and .def_109 .def_428))
(define-fun .def_430 () Bool (and .def_86 .def_429))
(define-fun .def_431 () Bool (and .loc.10 .def_430))
(define-fun .def_432 () Bool (and .loc.11 .def_431))
(define-fun .def_433 () Bool (and .def_321 .def_432))
(define-fun .def_434 () Bool (and .def_118 .def_433))
(define-fun .def_435 () Bool (and .def_120 .def_434))
(define-fun .def_436 () Bool (and .def_122 .def_435))
(define-fun .def_437 () Bool (and .def_124 .def_436))
(define-fun .def_443 () Bool (and .def_437 .def_442))
(define-fun .def_448 () Bool (and .def_443 .def_447))
(define-fun .def_555 () Bool (or .def_448 .def_554))
(define-fun .def_189 () Bool (= .def_76 .x.626))
(define-fun .def_556 () Bool (and .def_189 .def_555))
(define-fun .def_373 () Bool (<= .def_76 .def_60))
(define-fun .def_416 () Bool (or .def_82 .def_373))
(define-fun .def_260 () Bool (and .def_163 .def_259))
(define-fun .def_261 () Bool (and .def_92 .def_260))
(define-fun .def_262 () Bool (and .def_95 .def_261))
(define-fun .def_263 () Bool (and .def_97 .def_262))
(define-fun .def_264 () Bool (and .def_99 .def_263))
(define-fun .def_265 () Bool (and .def_174 .def_264))
(define-fun .def_266 () Bool (and .def_178 .def_265))
(define-fun .def_267 () Bool (and .def_101 .def_266))
(define-fun .def_269 () Bool (and .def_267 .def_268))
(define-fun .def_270 () Bool (and .def_103 .def_269))
(define-fun .def_271 () Bool (and .def_182 .def_270))
(define-fun .def_378 () Bool (and .def_105 .def_271))
(define-fun .def_379 () Bool (and .def_187 .def_378))
(define-fun .def_380 () Bool (and .def_107 .def_379))
(define-fun .def_381 () Bool (and .def_109 .def_380))
(define-fun .def_408 () Bool (and .def_88 .def_381))
(define-fun .def_409 () Bool (and .loc.9 .def_408))
(define-fun .def_410 () Bool (and .loc.11 .def_409))
(define-fun .def_411 () Bool (and .def_112 .def_410))
(define-fun .def_412 () Bool (and .def_116 .def_411))
(define-fun .def_413 () Bool (and .def_118 .def_412))
(define-fun .def_414 () Bool (and .def_120 .def_413))
(define-fun .def_415 () Bool (and .def_122 .def_414))
(define-fun .def_417 () Bool (and .def_415 .def_416))
(define-fun .def_557 () Bool (or .def_417 .def_556))
(define-fun .def_330 () Bool (and .def_82 .def_163))
(define-fun .def_331 () Bool (and .def_259 .def_330))
(define-fun .def_332 () Bool (and .def_92 .def_331))
(define-fun .def_333 () Bool (and .def_95 .def_332))
(define-fun .def_334 () Bool (and .def_97 .def_333))
(define-fun .def_335 () Bool (and .def_99 .def_334))
(define-fun .def_336 () Bool (and .def_174 .def_335))
(define-fun .def_337 () Bool (and .def_178 .def_336))
(define-fun .def_338 () Bool (and .def_101 .def_337))
(define-fun .def_339 () Bool (and .def_268 .def_338))
(define-fun .def_340 () Bool (and .def_103 .def_339))
(define-fun .def_341 () Bool (and .def_182 .def_340))
(define-fun .def_395 () Bool (and .def_105 .def_341))
(define-fun .def_396 () Bool (and .def_187 .def_395))
(define-fun .def_397 () Bool (and .def_189 .def_396))
(define-fun .def_398 () Bool (and .def_107 .def_397))
(define-fun .def_399 () Bool (and .def_109 .def_398))
(define-fun .def_400 () Bool (and .def_84 .def_399))
(define-fun .def_401 () Bool (and .def_86 .def_400))
(define-fun .def_402 () Bool (and .loc.9 .def_401))
(define-fun .def_403 () Bool (and .loc.11 .def_402))
(define-fun .def_404 () Bool (and .def_112 .def_403))
(define-fun .def_405 () Bool (and .def_118 .def_404))
(define-fun .def_406 () Bool (and .def_120 .def_405))
(define-fun .def_407 () Bool (and .def_124 .def_406))
(define-fun .def_558 () Bool (or .def_407 .def_557))
(define-fun .def_390 () (Array Int Int) (select .def_14 .def_66))
(define-fun .def_391 () Int (select .def_390 .def_38))
(define-fun .def_392 () Bool (= .x.626 .def_391))
(define-fun .def_393 () Bool (or .def_82 .def_392))
(define-fun .def_382 () Bool (and .def_84 .def_381))
(define-fun .def_383 () Bool (and .def_86 .def_382))
(define-fun .def_384 () Bool (and .loc.11 .def_383))
(define-fun .def_385 () Bool (and .def_321 .def_384))
(define-fun .def_386 () Bool (and .def_112 .def_385))
(define-fun .def_387 () Bool (and .def_118 .def_386))
(define-fun .def_388 () Bool (and .def_120 .def_387))
(define-fun .def_389 () Bool (and .def_124 .def_388))
(define-fun .def_394 () Bool (and .def_389 .def_393))
(define-fun .def_559 () Bool (or .def_394 .def_558))
(define-fun .def_184 () Bool (= .def_70 .x.623))
(define-fun .def_560 () Bool (and .def_184 .def_559))
(define-fun .def_374 () Bool (not .def_373))
(define-fun .def_370 () Int (* (- 1) .x.618))
(define-fun .def_371 () Int (+ .def_60 .def_370))
(define-fun .def_372 () Bool (= .def_371 (- 1)))
(define-fun .def_375 () Bool (and .def_372 .def_374))
(define-fun .def_376 () Bool (or .def_82 .def_375))
(define-fun .def_356 () Bool (and .def_103 .def_267))
(define-fun .def_357 () Bool (and .def_182 .def_356))
(define-fun .def_358 () Bool (and .def_105 .def_357))
(define-fun .def_359 () Bool (and .def_187 .def_358))
(define-fun .def_360 () Bool (and .def_107 .def_359))
(define-fun .def_361 () Bool (and .def_109 .def_360))
(define-fun .def_362 () Bool (and .def_88 .def_361))
(define-fun .def_363 () Bool (and .loc.9 .def_362))
(define-fun .def_364 () Bool (and .loc.10 .def_363))
(define-fun .def_365 () Bool (and .def_114 .def_364))
(define-fun .def_366 () Bool (and .def_116 .def_365))
(define-fun .def_367 () Bool (and .def_118 .def_366))
(define-fun .def_368 () Bool (and .def_120 .def_367))
(define-fun .def_369 () Bool (and .def_122 .def_368))
(define-fun .def_377 () Bool (and .def_369 .def_376))
(define-fun .def_561 () Bool (or .def_377 .def_560))
(define-fun .def_342 () Bool (and .def_184 .def_341))
(define-fun .def_343 () Bool (and .def_105 .def_342))
(define-fun .def_344 () Bool (and .def_187 .def_343))
(define-fun .def_345 () Bool (and .def_189 .def_344))
(define-fun .def_346 () Bool (and .def_107 .def_345))
(define-fun .def_347 () Bool (and .def_109 .def_346))
(define-fun .def_348 () Bool (and .def_84 .def_347))
(define-fun .def_349 () Bool (and .loc.10 .def_348))
(define-fun .def_350 () Bool (and .def_321 .def_349))
(define-fun .def_351 () Bool (and .def_114 .def_350))
(define-fun .def_352 () Bool (and .def_116 .def_351))
(define-fun .def_353 () Bool (and .def_118 .def_352))
(define-fun .def_354 () Bool (and .def_120 .def_353))
(define-fun .def_355 () Bool (and .def_124 .def_354))
(define-fun .def_562 () Bool (or .def_355 .def_561))
(define-fun .def_292 () Bool (<= 20 .def_54))
(define-fun .def_328 () Bool (or .def_82 .def_292))
(define-fun .def_272 () Bool (and .def_184 .def_271))
(define-fun .def_273 () Bool (and .def_105 .def_272))
(define-fun .def_274 () Bool (and .def_187 .def_273))
(define-fun .def_275 () Bool (and .def_189 .def_274))
(define-fun .def_276 () Bool (and .def_107 .def_275))
(define-fun .def_277 () Bool (and .def_109 .def_276))
(define-fun .def_278 () Bool (and .def_84 .def_277))
(define-fun .def_320 () Bool (and .loc.10 .def_278))
(define-fun .def_322 () Bool (and .def_320 .def_321))
(define-fun .def_323 () Bool (and .def_114 .def_322))
(define-fun .def_324 () Bool (and .def_116 .def_323))
(define-fun .def_325 () Bool (and .def_118 .def_324))
(define-fun .def_326 () Bool (and .def_120 .def_325))
(define-fun .def_327 () Bool (and .def_124 .def_326))
(define-fun .def_329 () Bool (and .def_327 .def_328))
(define-fun .def_563 () Bool (or .def_329 .def_562))
(define-fun .def_165 () Bool (= .def_36 .x.606))
(define-fun .def_93 () Bool (= .def_14 .x.595))
(define-fun .def_316 () Bool (and .def_93 .def_165))
(define-fun .def_167 () Bool (= .def_40 .x.608))
(define-fun .def_317 () Bool (and .def_167 .def_316))
(define-fun .def_169 () Bool (= .def_42 .x.609))
(define-fun .def_318 () Bool (and .def_169 .def_317))
(define-fun .def_176 () Bool (= .def_54 .x.615))
(define-fun .def_319 () Bool (and .def_176 .def_318))
(define-fun .def_564 () Bool (and .def_319 .def_563))
(define-fun .def_303 () Int (* 8 .def_54))
(define-fun .def_307 () Int (+ .def_303 .def_56))
(define-fun .def_309 () Int (+ .def_307 4))
(define-fun .def_306 () (Array Int Int) (select .def_14 .def_52))
(define-fun .def_308 () (Array Int Int) (store .def_306 .def_307 .def_36))
(define-fun .def_310 () (Array Int Int) (store .def_308 .def_309 .def_40))
(define-fun .def_311 () (Array Int (Array Int Int)) (store .def_14 .def_52 .def_310))
(define-fun .def_312 () Bool (= .x.595 .def_311))
(define-fun .def_300 () Bool (<= .def_40 2147483647))
(define-fun .def_298 () Bool (<= .def_36 2147483647))
(define-fun .def_296 () Bool (<= (- 2147483648) .def_36))
(define-fun .def_294 () Bool (<= (- 2147483648) .def_40))
(define-fun .def_293 () Bool (not .def_292))
(define-fun .def_295 () Bool (and .def_293 .def_294))
(define-fun .def_297 () Bool (and .def_295 .def_296))
(define-fun .def_299 () Bool (and .def_297 .def_298))
(define-fun .def_301 () Bool (and .def_299 .def_300))
(define-fun .def_313 () Bool (and .def_301 .def_312))
(define-fun .def_314 () Bool (or .def_82 .def_313))
(define-fun .def_286 () Int (* (- 1) .x.615))
(define-fun .def_287 () Int (+ .def_54 .def_286))
(define-fun .def_288 () Bool (= .def_287 (- 1)))
(define-fun .def_289 () Bool (or .x.629 .def_288))
(define-fun .def_279 () Bool (and .loc.9 .def_278))
(define-fun .def_280 () Bool (and .def_112 .def_279))
(define-fun .def_281 () Bool (and .def_114 .def_280))
(define-fun .def_282 () Bool (and .def_116 .def_281))
(define-fun .def_283 () Bool (and .def_118 .def_282))
(define-fun .def_284 () Bool (and .def_120 .def_283))
(define-fun .def_285 () Bool (and .def_124 .def_284))
(define-fun .def_290 () Bool (and .def_285 .def_289))
(define-fun .def_315 () Bool (and .def_290 .def_314))
(define-fun .def_565 () Bool (or .def_315 .def_564))
(define-fun .def_257 () Bool (= .def_78 .x.627))
(define-fun .def_255 () Bool (= .def_66 .x.621))
(define-fun .def_253 () Bool (= .def_46 .x.611))
(define-fun .def_251 () Bool (= .def_32 .x.604))
(define-fun .def_250 () Bool (= .def_38 .x.607))
(define-fun .def_252 () Bool (and .def_250 .def_251))
(define-fun .def_254 () Bool (and .def_252 .def_253))
(define-fun .def_256 () Bool (and .def_254 .def_255))
(define-fun .def_258 () Bool (and .def_256 .def_257))
(define-fun .def_566 () Bool (and .def_258 .def_565))
(define-fun .def_241 () Bool (= .def_30 .def_201))
(define-fun .def_244 () Bool (and .def_241 .def_243))
(define-fun .def_247 () Bool (and .def_244 .def_246))
(define-fun .def_248 () Bool (or .def_82 .def_247))
(define-fun .def_231 () Bool (= .x.604 .x.616))
(define-fun .def_229 () Bool (<= 10 .def_201))
(define-fun .def_230 () Bool (not .def_229))
(define-fun .def_232 () Bool (and .def_230 .def_231))
(define-fun .def_224 () Int (* (- 8) .def_201))
(define-fun .def_225 () Int (* (- 1) .x.616))
(define-fun .def_226 () Int (+ .def_225 .def_224))
(define-fun .def_227 () Int (+ .x.607 .def_226))
(define-fun .def_228 () Bool (= .def_227 0))
(define-fun .def_233 () Bool (and .def_228 .def_232))
(define-fun .def_219 () Bool (= .x.611 .x.614))
(define-fun .def_234 () Bool (and .def_219 .def_233))
(define-fun .def_205 () Int (* 8 .def_201))
(define-fun .def_214 () Int (+ .x.616 .def_205))
(define-fun .def_215 () (Array Int Int) (select .def_14 .x.614))
(define-fun .def_216 () (Array Int Int) (store .def_215 .def_214 .def_201))
(define-fun .def_217 () (Array Int (Array Int Int)) (store .def_14 .x.614 .def_216))
(define-fun .def_218 () Bool (= .x.595 .def_217))
(define-fun .def_235 () Bool (and .def_218 .def_234))
(define-fun .def_213 () Bool (= .x.614 .x.621))
(define-fun .def_236 () Bool (and .def_213 .def_235))
(define-fun .def_206 () Int (+ .x.604 .def_205))
(define-fun .def_207 () (Array Int Int) (select .x.595 .x.611))
(define-fun .def_208 () Int (select .def_207 .def_206))
(define-fun .def_210 () Int (* (- 1) .def_208))
(define-fun .def_211 () Int (+ .x.618 .def_210))
(define-fun .def_212 () Bool (= .def_211 10))
(define-fun .def_237 () Bool (and .def_212 .def_236))
(define-fun .def_202 () Bool (<= 0 .def_201))
(define-fun .def_238 () Bool (and .def_202 .def_237))
(define-fun .def_239 () Bool (or .x.629 .def_238))
(define-fun .def_166 () Bool (and .def_164 .def_165))
(define-fun .def_168 () Bool (and .def_166 .def_167))
(define-fun .def_170 () Bool (and .def_168 .def_169))
(define-fun .def_171 () Bool (and .def_95 .def_170))
(define-fun .def_172 () Bool (and .def_97 .def_171))
(define-fun .def_173 () Bool (and .def_99 .def_172))
(define-fun .def_175 () Bool (and .def_173 .def_174))
(define-fun .def_177 () Bool (and .def_175 .def_176))
(define-fun .def_179 () Bool (and .def_177 .def_178))
(define-fun .def_180 () Bool (and .def_101 .def_179))
(define-fun .def_181 () Bool (and .def_103 .def_180))
(define-fun .def_183 () Bool (and .def_181 .def_182))
(define-fun .def_185 () Bool (and .def_183 .def_184))
(define-fun .def_186 () Bool (and .def_105 .def_185))
(define-fun .def_188 () Bool (and .def_186 .def_187))
(define-fun .def_190 () Bool (and .def_188 .def_189))
(define-fun .def_191 () Bool (and .def_107 .def_190))
(define-fun .def_192 () Bool (and .def_109 .def_191))
(define-fun .def_193 () Bool (and .def_86 .def_192))
(define-fun .def_194 () Bool (and .loc.9 .def_193))
(define-fun .def_195 () Bool (and .loc.10 .def_194))
(define-fun .def_196 () Bool (and .def_114 .def_195))
(define-fun .def_197 () Bool (and .def_118 .def_196))
(define-fun .def_198 () Bool (and .def_120 .def_197))
(define-fun .def_199 () Bool (and .def_122 .def_198))
(define-fun .def_200 () Bool (and .def_124 .def_199))
(define-fun .def_240 () Bool (and .def_200 .def_239))
(define-fun .def_249 () Bool (and .def_240 .def_248))
(define-fun .def_567 () Bool (or .def_249 .def_566))
(define-fun .def_161 () Bool (= .def_26 .x.601))
(define-fun .def_159 () Bool (= .def_18 .x.597))
(define-fun .def_158 () Bool (= .def_22 .x.599))
(define-fun .def_160 () Bool (and .def_158 .def_159))
(define-fun .def_162 () Bool (and .def_160 .def_161))
(define-fun .def_568 () Bool (and .def_162 .def_567))
(define-fun .def_153 () Bool (= .x.597 0))
(define-fun .def_152 () Bool (= .x.601 0))
(define-fun .def_154 () Bool (and .def_152 .def_153))
(define-fun .def_150 () (Array Int Int) (store .def_10 0 0))
(define-fun .def_151 () Bool (= .def_127 .def_150))
(define-fun .def_155 () Bool (and .def_151 .def_154))
(define-fun .def_156 () Bool (or .def_82 .def_155))
(define-fun .def_140 () (Array Int Int) (store .def_22 .x.614 160))
(define-fun .def_141 () Bool (= .x.599 .def_140))
(define-fun .def_138 () Bool (= .x.616 0))
(define-fun .def_142 () Bool (and .def_138 .def_141))
(define-fun .def_136 () (Array Int Int) (store .def_127 .x.614 1))
(define-fun .def_137 () Bool (= .x.593 .def_136))
(define-fun .def_143 () Bool (and .def_137 .def_142))
(define-fun .def_133 () Bool (<= .x.592 .x.614))
(define-fun .def_134 () Bool (not .def_133))
(define-fun .def_144 () Bool (and .def_134 .def_143))
(define-fun .def_132 () Bool (= .x.615 0))
(define-fun .def_145 () Bool (and .def_132 .def_144))
(define-fun .def_130 () Bool (= .x.614 0))
(define-fun .def_131 () Bool (not .def_130))
(define-fun .def_146 () Bool (and .def_131 .def_145))
(define-fun .def_128 () Int (select .def_127 .x.614))
(define-fun .def_129 () Bool (= .def_128 0))
(define-fun .def_147 () Bool (and .def_129 .def_146))
(define-fun .def_148 () Bool (or .x.629 .def_147))
(define-fun .def_94 () Bool (and .def_92 .def_93))
(define-fun .def_96 () Bool (and .def_94 .def_95))
(define-fun .def_98 () Bool (and .def_96 .def_97))
(define-fun .def_100 () Bool (and .def_98 .def_99))
(define-fun .def_102 () Bool (and .def_100 .def_101))
(define-fun .def_104 () Bool (and .def_102 .def_103))
(define-fun .def_106 () Bool (and .def_104 .def_105))
(define-fun .def_108 () Bool (and .def_106 .def_107))
(define-fun .def_110 () Bool (and .def_108 .def_109))
(define-fun .def_111 () Bool (and .loc.9 .def_110))
(define-fun .def_113 () Bool (and .def_111 .def_112))
(define-fun .def_115 () Bool (and .def_113 .def_114))
(define-fun .def_117 () Bool (and .def_115 .def_116))
(define-fun .def_119 () Bool (and .def_117 .def_118))
(define-fun .def_121 () Bool (and .def_119 .def_120))
(define-fun .def_123 () Bool (and .def_121 .def_122))
(define-fun .def_125 () Bool (and .def_123 .def_124))
(define-fun .def_149 () Bool (and .def_125 .def_148))
(define-fun .def_157 () Bool (and .def_149 .def_156))
(define-fun .def_569 () Bool (or .def_157 .def_568))
(define-fun .def_583 () Bool (! (and .def_569 .def_582) :trans true))
(define-fun .def_599 () Bool (and .def_90 .def_596))
(define-fun .def_600 () Bool (and .def_82 .def_599))
(define-fun .def_601 () Bool (! (not .def_600) :invar-property 0))
(assert true)
